1 100 645 95
0 35.0 35.0 0.0 0.0 0 230
2 41.0 49.0 10.0 10.0 0 204 1 5
3 35.0 17.0 10.0 7.0 0 202 2 5
4 55.0 45.0 10.0 13.0 0 197 3 5
5 55.0 20.0 10.0 19.0 139 169 4 5
6 15.0 30.0 10.0 26.0 0 199 5 5
7 25.0 30.0 10.0 3.0 89 119 6 10
8 20.0 50.0 10.0 5.0 0 198 7 10
9 10.0 43.0 10.0 9.0 85 115 8 10
10 55.0 60.0 10.0 16.0 87 117 9 10
11 30.0 60.0 10.0 16.0 114 144 10 10
12 20.0 65.0 10.0 12.0 57 87 11 15
13 50.0 35.0 10.0 19.0 0 205 12 15
14 30.0 25.0 10.0 23.0 149 179 13 15
15 15.0 10.0 10.0 20.0 32 62 14 15
16 30.0 5.0 10.0 8.0 51 81 15 15
17 10.0 20.0 10.0 19.0 65 95 16 5
18 5.0 30.0 10.0 2.0 147 177 17 5
19 20.0 40.0 10.0 12.0 77 107 18 5
20 15.0 60.0 10.0 17.0 66 96 19 5
21 45.0 65.0 10.0 9.0 116 146 20 5
22 45.0 20.0 10.0 11.0 0 201 21 10
23 45.0 10.0 10.0 18.0 87 117 22 10
24 55.0 5.0 10.0 29.0 58 88 23 10
25 65.0 35.0 10.0 3.0 143 173 24 10
26 65.0 20.0 10.0 6.0 156 186 25 10
27 45.0 30.0 10.0 17.0 0 208 26 15
28 35.0 40.0 10.0 16.0 27 57 27 15
29 41.0 37.0 10.0 16.0 29 59 28 15
30 64.0 42.0 10.0 9.0 53 83 29 15
31 40.0 60.0 10.0 21.0 61 91 30 15
32 31.0 52.0 10.0 27.0 0 202 31 5
33 35.0 69.0 10.0 23.0 131 161 32 5
34 53.0 52.0 10.0 11.0 27 57 33 5
35 65.0 55.0 10.0 14.0 0 183 34 5
36 63.0 65.0 10.0 8.0 133 163 35 5
37 2.0 60.0 10.0 5.0 41 71 36 10
38 20.0 20.0 10.0 8.0 0 198 37 10
39 5.0 5.0 10.0 16.0 73 103 38 10
40 60.0 12.0 10.0 31.0 34 64 39 10
41 40.0 25.0 10.0 9.0 75 105 40 10
42 42.0 7.0 10.0 5.0 87 117 41 15
43 24.0 12.0 10.0 5.0 25 55 42 15
44 23.0 3.0 10.0 7.0 122 152 43 15
45 11.0 14.0 10.0 18.0 59 89 44 15
46 6.0 38.0 10.0 16.0 29 59 45 15
47 2.0 48.0 10.0 1.0 107 137 46 5
48 8.0 56.0 10.0 27.0 41 71 47 5
49 13.0 52.0 10.0 36.0 0 192 48 5
50 6.0 68.0 10.0 30.0 98 128 49 5
51 47.0 47.0 10.0 13.0 0 203 50 5
52 49.0 58.0 10.0 10.0 78 108 51 10
53 27.0 43.0 10.0 9.0 0 208 52 10
54 37.0 31.0 10.0 14.0 85 115 53 10
55 57.0 29.0 10.0 18.0 130 160 54 10
56 63.0 23.0 10.0 2.0 126 156 55 10
57 53.0 12.0 10.0 6.0 120 150 56 15
58 32.0 12.0 10.0 7.0 91 121 57 15
59 36.0 26.0 10.0 18.0 180 210 58 15
60 21.0 24.0 10.0 28.0 0 202 59 15
61 17.0 34.0 10.0 3.0 152 182 60 15
62 12.0 24.0 10.0 13.0 66 96 61 5
63 24.0 58.0 10.0 19.0 48 78 62 5
64 27.0 69.0 10.0 10.0 34 64 63 5
65 15.0 77.0 10.0 9.0 63 93 64 5
66 62.0 77.0 10.0 20.0 49 79 65 5
67 49.0 73.0 10.0 25.0 117 147 66 10
68 67.0 5.0 10.0 25.0 73 103 67 10
69 56.0 39.0 10.0 36.0 132 162 68 10
70 37.0 47.0 10.0 6.0 40 70 69 10
71 37.0 56.0 10.0 5.0 168 198 70 10
72 57.0 68.0 10.0 15.0 67 97 71 15
73 47.0 16.0 10.0 25.0 0 197 72 15
74 44.0 17.0 10.0 9.0 68 98 73 15
75 46.0 13.0 10.0 8.0 139 169 74 15
76 49.0 11.0 10.0 18.0 0 192 75 15
77 49.0 42.0 10.0 13.0 63 93 76 5
78 53.0 43.0 10.0 14.0 169 199 77 5
79 61.0 52.0 10.0 3.0 86 116 78 5
80 57.0 48.0 10.0 23.0 82 112 79 5
81 56.0 37.0 10.0 6.0 168 198 80 5
82 55.0 54.0 10.0 26.0 84 114 81 10
83 15.0 47.0 10.0 16.0 0 196 82 10
84 14.0 37.0 10.0 11.0 0 198 83 10
85 11.0 31.0 10.0 7.0 91 121 84 10
86 16.0 22.0 10.0 41.0 0 196 85 10
87 4.0 18.0 10.0 35.0 84 114 86 15
88 28.0 18.0 10.0 26.0 83 113 87 15
89 26.0 52.0 10.0 9.0 64 94 88 15
90 26.0 35.0 10.0 15.0 166 196 89 15
91 31.0 67.0 10.0 3.0 85 115 90 15
92 15.0 19.0 10.0 1.0 0 194 91 5
93 22.0 22.0 10.0 2.0 18 48 92 5
94 18.0 24.0 10.0 22.0 169 199 93 5
95 26.0 27.0 10.0 27.0 0 207 94 5
96 25.0 24.0 10.0 20.0 0 205 95 5
97 22.0 27.0 10.0 11.0 0 204 96 10
98 25.0 21.0 10.0 12.0 123 153 97 10
99 19.0 21.0 10.0 10.0 0 198 98 10
100 20.0 26.0 10.0 9.0 73 103 99 10
101 18.0 18.0 10.0 17.0 165 195 100 10